58619
155,169,217,575,788,796,915,1078,1487,1588,1804,1812,1848,2617,2726,2851,2951,2983,2991,3018,3166,3258,3398,3433,3530,3583,3646,3735,3737,3777,3829,3898,3955,4051,4149,4172,4284,4312,4316,4398,4459,4511,4578,4646,4905,4935,5104,5187,5216,5348,5419,5466,5615,5928,6014,6131,6207,6214,6349,6381,6674,6698,6981,7032,7033,7079,7275,7856,7894,7911,7919,8167,8190,8329,8372,8485,8636,8707,8860,8889,8983,8996,9052,9116,9158,9406,9490,9530,9722,9803,9838
